NAME : mcpfd
COMMENT : file for mcpfd test
TYPE : ATSP
DIMENSION : 20
EDGE_WEIGHT_TYPE : EXPLICIT
EDGE_WEIGHT_FORMAT : FULL_MATRIX
EDGE_WEIGHT_SECTION
999999 999999 999999 999999 999999 35 30 47 27 25 25 25 13 14 36 41 9 24 37 48 
999999 999999 999999 999999 999999 39 42 39 7 5 11 35 7 8 34 35 23 22 27 38 
999999 999999 999999 999999 999999 25 28 19 23 23 15 21 23 26 18 15 21 8 19 20 
999999 999999 999999 999999 999999 31 36 11 29 29 19 29 35 38 24 13 33 18 7 12 
999999 999999 999999 999999 999999 22 19 36 30 28 24 12 16 17 21 28 6 11 30 37 
999999 999999 999999 999999 999999 0 5 32 46 44 40 12 36 37 7 22 26 17 38 35 
999999 999999 999999 999999 999999 5 0 37 49 47 43 7 35 36 12 27 21 20 43 40 
999999 999999 999999 999999 999999 32 37 0 38 38 28 32 42 45 25 12 40 25 12 3 
999999 999999 999999 999999 999999 46 49 38 0 2 10 42 14 13 39 34 30 29 26 37 
999999 999999 999999 999999 999999 44 47 38 2 0 10 40 12 11 37 34 28 27 26 37 
999999 999999 999999 999999 999999 40 43 28 10 10 0 36 16 19 33 24 24 23 16 27 
999999 999999 999999 999999 999999 12 7 32 42 40 36 0 28 29 15 22 16 13 36 35 
999999 999999 999999 999999 999999 36 35 42 14 12 16 28 0 3 35 36 16 21 32 43 
999999 999999 999999 999999 999999 37 36 45 13 11 19 29 3 0 36 39 17 22 35 46 
999999 999999 999999 999999 999999 7 12 25 39 37 33 15 35 36 0 15 27 14 31 28 
0 0 0 0 0 999999 999999 999999 999999 999999 999999 999999 999999 999999 999999 999999 999999 999999 999999 999999 
0 0 0 0 0 999999 999999 999999 999999 999999 999999 999999 999999 999999 999999 999999 999999 999999 999999 999999 
0 0 0 0 0 999999 999999 999999 999999 999999 999999 999999 999999 999999 999999 999999 999999 999999 999999 999999 
0 0 0 0 0 999999 999999 999999 999999 999999 999999 999999 999999 999999 999999 999999 999999 999999 999999 999999 
0 0 0 0 0 999999 999999 999999 999999 999999 999999 999999 999999 999999 999999 999999 999999 999999 999999 999999 
